100 8
865 763
703 736
257 270
884 470
835 481
346 324
157 263
908 317
861 288
973 619
582 789
386 438
755 835
126 309
183 477
96 470
522 460
719 639
843 838
953 256
109 322
837 376
382 640
134 264
522 416
745 656
212 373
607 832
674 220
599 736
486 581
584 892
553 908
778 379
806 414
864 899
376 461
881 245
4 325
917 426
933 399
866 596
667 330
126 423
247 335
314 470
195 343
635 910
699 320
381 476
487 565
536 541
917 214
606 422
168 173
621 726
335 407
599 759
657 938
760 412
514 795
813 562
102 398
925 696
760 447
231 391
783 250
193 397
730 809
685 348
369 488
620 511
172 426
500 902
317 534
849 663
727 302
396 548
490 651
786 372
347 459
467 499
442 491
838 321
184 388
762 220
903 277
557 570
282 323
333 563
660 374
537 979
186 347
427 635
391 605
138 219
126 238
731 592
613 818
274 503
